JulietBench/Juliet_Based_Patch_Bench/linux/CWE-190-Integer-Overflow-or-Wraparound/CVE_2017_18257_b86e33075ed1909d8002745b56ecf73b833db143/Result__get_data_block_SnippetEQ.smt2
; benchmark generated from python API
(set-info :status unknown)
(declare-fun rsi () (_ BitVec 64))
(declare-fun rdi () (_ BitVec 64))
(declare-fun R () (_ BitVec 32))
(assert
 (let ((?x84 ((_ extract 5 0) rsi)))
 (let ((?x75 (concat (_ bv0 58) ?x84)))
 (let ((?x6 ((_ extract 31 0) rdi)))
 (let ((?x55 (concat (_ bv0 32) ?x6)))
 (let ((?x76 (bvshl ?x55 ?x75)))
 (let ((?x77 ((_ extract 31 0) ?x76)))
 (let (($x108 (= R ?x77)))
 (let ((?x29 ((_ extract 4 0) rsi)))
 (let ((?x60 (concat (_ bv0 59) ?x29)))
 (let ((?x61 (bvshl ?x55 ?x60)))
 (let ((?x87 ((_ extract 31 0) ?x61)))
 (let (($x53 (= R ?x87)))
 (and $x53 $x108))))))))))))))
(check-sat)
